1157
0	72	126	176	263	338	422	518	525	637
72	88	215	263	315	518	547	575	699	839
88	202	262	276	336	401	484	514	624	713
135	184	276	315	365	428	484	565	588	771
184	242	248	293	428	517	623	663	734	798
0	239	352	422	463	536	800	898	985	1064
46	389	449	525	623	699	798	884	898	925
122	215	242	449	648	779	833	857	906	926
0	28	39	117	338	401	558	568	664	710
28	50	126	215	248	568	588	663	761	839
